
******************************************************************************
This program contains Ipopt, a library for large-scale nonlinear optimization.
 Ipopt is released as open source code under the Eclipse Public License (EPL).
         For more information visit http://projects.coin-or.org/Ipopt

This version of Ipopt was compiled from source code available at
    https://github.com/IDAES/Ipopt as part of the Institute for the Design of
    Advanced Energy Systems Process Systems Engineering Framework (IDAES PSE
    Framework) Copyright (c) 2018-2019. See https://github.com/IDAES/idaes-pse.

This version of Ipopt was compiled using HSL, a collection of Fortran codes
    for large-scale scientific computation.  All technical papers, sales and
    publicity material resulting from use of the HSL codes within IPOPT must
    contain the following acknowledgement:
        HSL, a collection of Fortran codes for large-scale scientific
        computation. See http://www.hsl.rl.ac.uk.
******************************************************************************

This is Ipopt version 3.13.2, running with linear solver ma27.

Number of nonzeros in equality constraint Jacobian...:      808
Number of nonzeros in inequality constraint Jacobian.:        0
Number of nonzeros in Lagrangian Hessian.............:      702

Total number of variables............................:      351
                     variables with only lower bounds:      108
                variables with lower and upper bounds:      189
                     variables with only upper bounds:        0
Total number of equality constraints.................:      350
Total number of inequality constraints...............:        0
        inequality constraints with only lower bounds:        0
   inequality constraints with lower and upper bounds:        0
        inequality constraints with only upper bounds:        0

iter    objective    inf_pr   inf_du lg(mu)  ||d||  lg(rg) alpha_du alpha_pr  ls
   0  0.0000000e+00 4.81e-01 1.78e-15  -1.0 0.00e+00    -  0.00e+00 0.00e+00   0
   1  1.4761072e+00 3.62e-01 1.02e+04  -1.0 2.86e+05    -  6.70e-01 2.62e-01h  1
   2  1.5666099e+00 3.58e-01 1.03e+04  -1.0 2.63e+05    -  7.31e-01 1.01e-02h  1
   3  3.1318294e+01 5.42e-02 1.64e+04  -1.0 2.96e+05    -  7.32e-01 9.90e-01h  1
   4  4.0695607e+01 1.97e-03 7.12e+01  -1.0 5.31e+04    -  9.45e-01 9.90e-01h  1
   5  4.1019992e+01 2.17e-05 4.37e+00  -1.0 1.78e+03    -  9.90e-01 9.90e-01h  1
   6  4.1021845e+01 2.10e-05 1.31e+07  -1.0 5.91e+02    -  9.90e-01 3.09e-02f  6
   7  4.1023749e+01 2.07e-05 2.67e+07  -1.0 1.25e+03    -  9.90e-01 1.55e-02f  7
   8  4.1145468e+01 5.90e-05 4.10e+05  -1.0 1.26e+03    -  1.00e+00 9.90e-01H  1
   9  4.1144878e+01 5.84e-07 1.43e+07  -1.0 6.55e+00    -  1.00e+00 9.90e-01h  1
iter    objective    inf_pr   inf_du lg(mu)  ||d||  lg(rg) alpha_du alpha_pr  ls
  10  4.1144881e+01 5.84e-09 1.43e+09  -1.0 2.35e-02    -  1.00e+00 9.90e-01h  1
  11  4.1144881e+01 5.88e-11 1.43e+11  -1.0 2.35e-04    -  1.00e+00 9.90e-01h  1
In iteration 11, 27 Slacks too small, adjusting variable bounds
  12  4.1144881e+01 1.44e-12 1.43e+13  -1.0 2.34e-06    -  1.00e+00 9.90e-01h  1
  13  4.1144881e+01 1.59e-12 1.17e-01  -1.0 2.36e-07    -  1.00e+00 1.00e+00h  1
  14  4.1144879e+01 3.96e-13 1.46e+13  -9.0 1.55e+03    -  9.98e-01 1.25e-05f 17
  15  4.1144877e+01 1.98e-12 1.46e+13  -9.0 1.28e+03    -  9.99e-01 1.51e-05f 17
  16  4.1144875e+01 2.82e-13 1.46e+13  -9.0 1.27e+03    -  1.00e+00 1.52e-05f 17
  17  4.1144874e+01 1.42e-12 1.46e+13  -9.0 1.27e+03    -  1.00e+00 7.63e-06f 18
  18  4.1144873e+01 1.62e-12 1.46e+13  -9.0 1.27e+03    -  1.00e+00 7.63e-06f 18
  19  4.1023461e+01 7.94e-04 1.31e+07  -9.0 1.27e+03    -  1.00e+00 1.00e+00f  1
iter    objective    inf_pr   inf_du lg(mu)  ||d||  lg(rg) alpha_du alpha_pr  ls
  20  4.1022267e+01 4.77e-08 4.02e-04  -9.0 1.20e+01    -  1.00e+00 1.00e+00h  1
  21  4.1022267e+01 4.70e-12 2.91e-11  -9.0 9.72e-05    -  1.00e+00 1.00e+00h  1

Number of Iterations....: 21

                                   (scaled)                 (unscaled)
Objective...............:   4.1022267084622783e+01    4.1022267084622783e+01
Dual infeasibility......:   2.9103830456733704e-11    2.9103830456733704e-11
Constraint violation....:   4.6971315725841123e-12    4.6971315725841123e-12
Complementarity.........:   9.0909091722546218e-10    9.0909091722546218e-10
Overall NLP error.......:   1.2421455754101650e-11    9.0909091722546218e-10


Number of objective function evaluations             = 138
Number of objective gradient evaluations             = 22
Number of equality constraint evaluations            = 138
Number of inequality constraint evaluations          = 0
Number of equality constraint Jacobian evaluations   = 22
Number of inequality constraint Jacobian evaluations = 0
Number of Lagrangian Hessian evaluations             = 21
Total CPU secs in IPOPT (w/o function evaluations)   =      0.050
Total CPU secs in NLP function evaluations           =      1.061

EXIT: Optimal Solution Found.
